DIMENSION: 150
85
132
65
55
58
50
137
135
70
108
86
29
81
110
47
2
19
102
114
99
37
6
9
28
42
120
139
40
53
12
24
118
127
69
36
61
11
148
130
17
66
60
140
117
57
39
41
101
116
38
23
32
131
67
43
109
51
20
25
141
83
90
46
138
134
54
92
105
111
16
133
77
122
14
80
15
78
59
79
88
94
21
64
112
72
49
147
144
129
27
31
123
74
145
136
44
71
45
128
106
13
91
119
68
104
4
115
150
125
22
149
62
3
113
10
121
52
33
126
8
7
84
30
34
103
98
1
87
76
73
48
63
89
96
35
93
124
82
95
107
5
100
143
97
56
146
26
75
18
142
